(set-info :smt-lib-version 2.7)
(set-logic QF_NIA)
(set-info :source  | 
Generated by: Johannes Bauer
Generated on: 2026-06-18
Generator: mgm A12 Test Data Generator
Application: ELSTER
Target solver: Z3, Yices2, CVC5
Script is based on the ELSTER form: capital gains tax registration (A / KapEStInvStG)
Characteristic of the form: easy.
In this script, all terms of the form (* x1 x2 x3 ...) are in the form (* x1 c2 c3 ...),
all terms of the form (div x y) are in the form (div x c) and the symbol mod is exclusively used in the form (mod x c),
where x, y, and x1, x2, x3 ... are free constants and c, c2, c3 ... are terms in the form n or (-n) for some numeral n.
The script starts with the base constraints, which define a valid data set for the corresponding form. After the first (push 1), control constraints follow.
The goal of the control constraints in this script is to fill up a data set with values, after the characteristics of the high test coverage were placed.
number variables: 94, number constraints: 165
"https://www.elster.de/eportal/start?locale=en_US"
"https://www.mgm-tp.com/q12-tdg.html"
"https://a12.ai/public-sector"
|)
(set-info :license "https://creativecommons.org/licenses/by/4.0/")
(set-info :category "industrial")
(set-info :major-phase |variable declarations|)
(declare-fun I1-i () Int)
(declare-fun I2-N () Int)
(declare-fun B3-F () Bool)
(declare-fun I3-i () Int)
(declare-fun B4-F () Bool)
(declare-fun B5-F () Bool)
(declare-fun I5-y () Int)
(declare-fun B6-F () Bool)
(declare-fun I7-N () Int)
(declare-fun I8-y () Int)
(declare-fun I8-d () Int)
(declare-fun I9-y () Int)
(declare-fun I9-m () Int)
(declare-fun I9-d () Int)
(declare-fun I10 () Int)
(declare-fun I11 () Int)
(declare-fun I12 () Int)
(declare-fun I13 () Int)
(declare-fun I14-s-y () Int)
(declare-fun I14-s-m () Int)
(declare-fun I14-s-d () Int)
(declare-fun I14-e-y () Int)
(declare-fun I14-e-m () Int)
(declare-fun I14-e-d () Int)
(declare-fun I15-y () Int)
(declare-fun I15-d () Int)
(declare-fun I16-y () Int)
(declare-fun I16-m () Int)
(declare-fun I16-d () Int)
(declare-fun I17 () Int)
(declare-fun I18 () Int)
(declare-fun I19-s-y () Int)
(declare-fun I19-s-m () Int)
(declare-fun I19-s-d () Int)
(declare-fun I19-e-y () Int)
(declare-fun I19-e-m () Int)
(declare-fun I19-e-d () Int)
(declare-fun I20-y () Int)
(declare-fun I20-d () Int)
(declare-fun I21-y () Int)
(declare-fun I21-m () Int)
(declare-fun I21-d () Int)
(declare-fun I22 () Int)
(declare-fun I23 () Int)
(declare-fun I24 () Int)
(declare-fun I25 () Int)
(declare-fun I26-N () Int)
(declare-fun I27-y () Int)
(declare-fun I27-m () Int)
(declare-fun I27-d () Int)
(declare-fun I28-y () Int)
(declare-fun I28-m () Int)
(declare-fun I28-d () Int)
(declare-fun I29 () Int)
(declare-fun I30 () Int)
(declare-fun I31 () Int)
(declare-fun I32 () Int)
(declare-fun I33 () Int)
(declare-fun I34 () Int)
(declare-fun I35 () Int)
(declare-fun I36 () Int)
(declare-fun I37 () Int)
(declare-fun B38-F () Bool)
(declare-fun I38-y () Int)
(declare-fun I38-m () Int)
(declare-fun I38-d () Int)
(declare-fun B39-F () Bool)
(declare-fun B40-F () Bool)
(declare-fun I40 () Int)
(declare-fun B41-F () Bool)
(declare-fun I41 () Int)
(declare-fun B42-F () Bool)
(declare-fun B43-F () Bool)
(declare-fun B44-F () Bool)
(declare-fun I44 () Int)
(declare-fun B45-F () Bool)
(declare-fun I45 () Int)
(declare-fun B46-F () Bool)
(declare-fun B47-F () Bool)
(declare-fun B48-F () Bool)
(declare-fun B49-F () Bool)
(declare-fun I49 () Int)
(declare-fun B50-F () Bool)
(declare-fun I50 () Int)
(declare-fun B51-F () Bool)
(declare-fun B52-F () Bool)
(declare-fun I52 () Int)
(declare-fun B53-F () Bool)
(declare-fun B54-F () Bool)
(declare-fun I54 () Int)
(declare-fun I55 () Int)
(declare-fun B56-F () Bool)
(declare-fun B57-F () Bool)
(declare-fun B58-F () Bool)
(set-info :major-phase |base constraints|)
(set-info :base-constraint-type ||)
(assert (= I8-y (ite B5-F I5-y 0)))
(assert (>= I8-y I7-N))
(assert (distinct I11 0))
(assert (distinct I11 0))
(assert (and (>= 2026 I27-y) (or (distinct 2026 I27-y) (>= 6 I27-m)) (or (distinct 2026 I27-y) (distinct 6 I27-m) (>= 18 I27-d)) (or (distinct 2026 I27-y) (distinct 6 I27-m) (distinct 18 I27-d))))
(assert (>= 2026 I26-N))
(assert (= I27-y I26-N))
(assert (and (<= I27-y (ite B5-F I5-y 0)) (= I27-y (ite B5-F I5-y 0)) (<= I27-m 6)))
(assert (<= I26-N 2025))
(assert (and (or (and (>= I27-y 2022) (or (distinct I27-y 2022) (>= I27-m 10)) (or (distinct I27-y 2022) (distinct I27-m 10) (>= I27-d 1))) (>= I26-N 2025)) (or (> I27-y 2022) (and (= I27-y 2022) (> I27-m 10)) (and (= I27-y 2022) (= I27-m 10) (> I27-d 1)) (and (= I27-y 2022) (= I27-m 10) (= I27-d 1))) (or (>= I26-N 2025) (distinct I26-N 2024)) (>= I26-N 2025) (distinct I26-N 2024)))
(assert (and (= I27-y (ite B5-F I5-y 0)) (>= I27-m 2) (or (= I27-y (ite B5-F I5-y 0)) (>= I27-y (- (ite B5-F I5-y 0) 1))) (or (= I27-y (ite B5-F I5-y 0)) (distinct I27-y (- (ite B5-F I5-y 0) 1)) (<= I27-m 8) (>= I27-m 14)) (or (= I27-y (ite B5-F I5-y 0)) (distinct I27-y (- (ite B5-F I5-y 0) 1)) (> I27-m 8))))
(assert (or (= I32 0) (distinct I33 0)))
(assert (and (distinct I30 0) (or (= I32 0) (distinct I33 0))))
(assert (and (distinct I32 0) (distinct I33 0)))
(assert (<= (ite (>= (- I29 489761482837) 0) (- I29 489761482837) (- (- I29 489761482837))) 100))
(assert (and (<= 9386366900 (+ (* I30 15) 100)) (<= (* I33 100) (+ (* I32 15) 100))))
(assert (<= (ite (>= (- I34 (div (* I33 55) 10)) 0) (- I34 (div (* I33 55) 10)) (- (- I34 (div (* I33 55) 10)))) 100))
(assert (distinct I35 0))
(assert (> (ite (>= (- 0 (div (* I35 55) 10)) 0) (- 0 (div (* I35 55) 10)) (- (- 0 (div (* I35 55) 10)))) 100))
(assert (<= (* I35 100) 15000000000085))
(assert (and (<= I28-y (ite B5-F I5-y 0)) (<= I28-m 6) (= I28-y (ite B5-F I5-y 0))))
(assert (and (<= I16-y I15-y) (or (distinct I16-y I15-y) (<= I16-m 6)) (or (distinct I16-y I15-y) (distinct I16-m 6) (<= I16-d I15-d))))
(assert (and (>= I14-s-y (- I14-e-y 1)) (= I14-s-y (- I14-e-y 1)) (>= I14-s-m I14-e-m) (or (distinct I14-s-y (- I14-e-y 1)) (distinct I14-s-m I14-e-m) (>= I14-s-d (+ I14-e-d 1)))))
(assert (and (>= I14-s-y (- I14-e-y 1)) (or (distinct I14-s-y (- I14-e-y 1)) (>= I14-s-m I14-e-m)) (= I14-s-y (- I14-e-y 1)) (distinct I14-s-m I14-e-m) (< I14-s-d (+ I14-e-d 1))))
(assert (= I20-y (ite B5-F I5-y 0)))
(assert (>= I20-y 2025))
(assert (and (distinct I22 0) (distinct I24 0)))
(assert (and (distinct I22 0) (distinct I24 0)))
(assert (and (distinct I22 0) (distinct I24 0)))
(assert (<= (ite (>= (- I23 (div (* I22 55) 10)) 0) (- I23 (div (* I22 55) 10)) (- (- I23 (div (* I22 55) 10)))) 100))
(assert (<= (ite (>= (- I25 (div (* I24 55) 10)) 0) (- I25 (div (* I24 55) 10)) (- (- I25 (div (* I24 55) 10)))) 100))
(assert (and (<= I19-e-y I20-y) (or (distinct I19-e-y I20-y) (<= I19-e-m 6)) (or (distinct I19-e-y I20-y) (distinct I19-e-m 6) (<= I19-e-d I20-d))))
(assert (and (>= I19-s-y (- I19-e-y 1)) (distinct I19-s-y (- I19-e-y 1)) (< I19-s-m I19-e-m) (or (distinct I19-s-y (- I19-e-y 1)) (distinct I19-s-m I19-e-m) (>= I19-s-d (+ I19-e-d 1)))))
(set-info :base-constraint-type |constraints defining hierarchy (group is filled, if a child is filled)|)
(assert (not (or B38-F B39-F)))
(assert (= B39-F (or B40-F B41-F)))
(assert (= B56-F (or B57-F B58-F)))
(set-info :base-constraint-type |domainconstraints number-fields|)
(assert (ite B40-F (and (<= I40 999999999999) (>= I40 0)) (= I40 0)))
(assert (ite B41-F (and (<= I41 999999999999) (>= I41 0)) (= I41 0)))
(assert (and (<= I36 999999999999) (>= I36 (- 999999999999))))
(assert (and (<= I37 99999999999999) (>= I37 (- 99999999999999))))
(assert (and (<= I10 999999999999) (>= I10 (- 999999999999))))
(assert (and (<= I11 999999999999) (>= I11 (- 999999999999))))
(assert (and (<= I12 99999999999999) (>= I12 (- 99999999999999))))
(assert (and (<= I13 99999999999999) (>= I13 (- 99999999999999))))
(assert (and (<= I29 99999999999999) (>= I29 0)))
(assert (and (<= I30 999999999999) (>= I30 0)))
(assert (and (<= I31 99999999999999) (>= I31 0)))
(assert (and (<= I32 999999999999) (>= I32 0)))
(assert (and (<= I33 999999999999) (>= I33 0)))
(assert (and (<= I34 99999999999999) (>= I34 0)))
(assert (and (<= I35 999999999999) (>= I35 (- 999999999999))))
(assert (and (<= I17 99999999999999) (>= I17 (- 99999999999999))))
(assert (and (<= I18 99999999999999) (>= I18 (- 99999999999999))))
(assert (and (<= I22 999999999999) (>= I22 (- 999999999999))))
(assert (and (<= I23 99999999999999) (>= I23 (- 99999999999999))))
(assert (and (<= I24 999999999999) (>= I24 (- 999999999999))))
(assert (and (<= I25 99999999999999) (>= I25 (- 99999999999999))))
(assert (ite B45-F (and (<= I45 99999999999999) (>= I45 (- 9999999999999))) (= I45 0)))
(assert (ite B44-F (and (<= I44 99999999999999) (>= I44 (- 9999999999999))) (= I44 0)))
(assert (ite B42-F true false))
(assert (ite B43-F true false))
(assert (ite B46-F true false))
(assert (ite B48-F true false))
(assert (ite B47-F true false))
(assert (ite B49-F (and (<= I49 99999999999999) (>= I49 (- 9999999999999))) (= I49 0)))
(assert (ite B50-F (and (<= I50 99999999999999) (>= I50 (- 9999999999999))) (= I50 0)))
(assert (ite B51-F true false))
(assert (ite B52-F (and (<= I52 99999999999999) (>= I52 (- 9999999999999))) (= I52 0)))
(assert (ite B53-F true false))
(assert (ite B54-F (and (<= I54 99999999999999) (>= I54 (- 9999999999999))) (= I54 0)))
(assert (and (<= I55 99999999999999) (>= I55 (- 9999999999999))))
(set-info :base-constraint-type |domainconstraints date-fields|)
(assert (and (ite B38-F (and (> I38-y 1900) (< I38-y 2100)) (= I38-y 0)) (ite B38-F (and (> I38-m 0) (<= I38-m 12)) (= I38-m 0)) (ite B38-F (and (> I38-d 0) (<= I38-d (ite (or (= I38-m 0) (= I38-m 1) (= I38-m 3) (= I38-m 5) (= I38-m 7) (= I38-m 8) (= I38-m 10) (= I38-m 12)) 31 (ite (or (= I38-m 4) (= I38-m 6) (= I38-m 9) (= I38-m 11)) 30 (ite (= (mod I38-y 4) 0) 29 28))))) (= I38-d 0))))
(assert (ite B5-F (and (> I5-y 1900) (< I5-y 2100)) (= I5-y 0)))
(assert (and (> I9-y 1900) (< I9-y 2100) (> I9-m 0) (<= I9-m 12) (> I9-d 0) (<= I9-d (ite (or (= I9-m 0) (= I9-m 1) (= I9-m 3) (= I9-m 5) (= I9-m 7) (= I9-m 8) (= I9-m 10) (= I9-m 12)) 31 (ite (or (= I9-m 4) (= I9-m 6) (= I9-m 9) (= I9-m 11)) 30 (ite (= (mod I9-y 4) 0) 29 28))))))
(assert (and (> I8-y 1900) (< I8-y 2100) (> I8-d 0) (<= I8-d 30)))
(assert (and (> I27-y 1900) (< I27-y 2100) (> I27-m 0) (<= I27-m 12) (> I27-d 0) (<= I27-d (ite (or (= I27-m 0) (= I27-m 1) (= I27-m 3) (= I27-m 5) (= I27-m 7) (= I27-m 8) (= I27-m 10) (= I27-m 12)) 31 (ite (or (= I27-m 4) (= I27-m 6) (= I27-m 9) (= I27-m 11)) 30 (ite (= (mod I27-y 4) 0) 29 28))))))
(assert (and (> I28-y 1900) (< I28-y 2100) (> I28-m 0) (<= I28-m 12) (> I28-d 0) (<= I28-d (ite (or (= I28-m 0) (= I28-m 1) (= I28-m 3) (= I28-m 5) (= I28-m 7) (= I28-m 8) (= I28-m 10) (= I28-m 12)) 31 (ite (or (= I28-m 4) (= I28-m 6) (= I28-m 9) (= I28-m 11)) 30 (ite (= (mod I28-y 4) 0) 29 28))))))
(assert (and (> I16-y 1900) (< I16-y 2100) (> I16-m 0) (<= I16-m 12) (> I16-d 0) (<= I16-d (ite (or (= I16-m 0) (= I16-m 1) (= I16-m 3) (= I16-m 5) (= I16-m 7) (= I16-m 8) (= I16-m 10) (= I16-m 12)) 31 (ite (or (= I16-m 4) (= I16-m 6) (= I16-m 9) (= I16-m 11)) 30 (ite (= (mod I16-y 4) 0) 29 28))))))
(assert (and (> I15-y 1900) (< I15-y 2100) (> I15-d 0) (<= I15-d 30)))
(assert (or (< I14-s-y I14-e-y) (and (= I14-s-y I14-e-y) (< I14-s-m I14-e-m)) (and (= I14-s-y I14-e-y) (= I14-s-m I14-e-m) (<= I14-s-d I14-e-d))))
(assert (and (>= I14-e-d 1) (<= I14-e-d (ite (or (= I14-e-m 0) (= I14-e-m 1) (= I14-e-m 3) (= I14-e-m 5) (= I14-e-m 7) (= I14-e-m 8) (= I14-e-m 10) (= I14-e-m 12)) 31 (ite (or (= I14-e-m 4) (= I14-e-m 6) (= I14-e-m 9) (= I14-e-m 11)) 30 (ite (= (mod I14-e-y 4) 0) 29 28))))))
(assert (and (>= I14-e-m 1) (<= I14-e-m 12)))
(assert (and (>= I14-e-y 1901) (<= I14-e-y 2099)))
(assert (and (>= I14-s-d 1) (<= I14-s-d (ite (or (= I14-s-m 0) (= I14-s-m 1) (= I14-s-m 3) (= I14-s-m 5) (= I14-s-m 7) (= I14-s-m 8) (= I14-s-m 10) (= I14-s-m 12)) 31 (ite (or (= I14-s-m 4) (= I14-s-m 6) (= I14-s-m 9) (= I14-s-m 11)) 30 (ite (= (mod I14-s-y 4) 0) 29 28))))))
(assert (and (>= I14-s-m 1) (<= I14-s-m 12)))
(assert (and (>= I14-s-y 1901) (<= I14-s-y 2099)))
(assert (and (> I21-y 1900) (< I21-y 2100) (> I21-m 0) (<= I21-m 12) (> I21-d 0) (<= I21-d (ite (or (= I21-m 0) (= I21-m 1) (= I21-m 3) (= I21-m 5) (= I21-m 7) (= I21-m 8) (= I21-m 10) (= I21-m 12)) 31 (ite (or (= I21-m 4) (= I21-m 6) (= I21-m 9) (= I21-m 11)) 30 (ite (= (mod I21-y 4) 0) 29 28))))))
(assert (and (> I20-y 1900) (< I20-y 2100) (> I20-d 0) (<= I20-d 30)))
(assert (or (< I19-s-y I19-e-y) (and (= I19-s-y I19-e-y) (< I19-s-m I19-e-m)) (and (= I19-s-y I19-e-y) (= I19-s-m I19-e-m) (<= I19-s-d I19-e-d))))
(assert (and (>= I19-e-d 1) (<= I19-e-d (ite (or (= I19-e-m 0) (= I19-e-m 1) (= I19-e-m 3) (= I19-e-m 5) (= I19-e-m 7) (= I19-e-m 8) (= I19-e-m 10) (= I19-e-m 12)) 31 (ite (or (= I19-e-m 4) (= I19-e-m 6) (= I19-e-m 9) (= I19-e-m 11)) 30 (ite (= (mod I19-e-y 4) 0) 29 28))))))
(assert (and (>= I19-e-m 1) (<= I19-e-m 12)))
(assert (and (>= I19-e-y 1901) (<= I19-e-y 2099)))
(assert (and (>= I19-s-d 1) (<= I19-s-d (ite (or (= I19-s-m 0) (= I19-s-m 1) (= I19-s-m 3) (= I19-s-m 5) (= I19-s-m 7) (= I19-s-m 8) (= I19-s-m 10) (= I19-s-m 12)) 31 (ite (or (= I19-s-m 4) (= I19-s-m 6) (= I19-s-m 9) (= I19-s-m 11)) 30 (ite (= (mod I19-s-y 4) 0) 29 28))))))
(assert (and (>= I19-s-m 1) (<= I19-s-m 12)))
(assert (and (>= I19-s-y 1901) (<= I19-s-y 2099)))
(set-info :base-constraint-type |constraints for date-strategy|)
(assert (and (> I7-N 1900) (< I7-N 2100)))
(assert (and (> I7-N 1900) (< I7-N 2100)))
(set-info :base-constraint-type |domainconstraints string fields|)
(assert (and (>= I7-N 0) (<= I7-N 9999)))
(assert (and (>= I26-N 0) (<= I26-N 9999)))
(set-info :base-constraint-type |domainconstraints index-based string fields|)
(assert (or (= I2-N 0) (= I2-N 1)))
(assert (or (= I1-i 1) (= I1-i 2) (= I1-i 3) (= I1-i 4) (= I1-i 5) (= I1-i 6) (= I1-i 7) (= I1-i 8) (= I1-i 9) (= I1-i 10) (= I1-i 11) (= I1-i 12) (= I1-i 13) (= I1-i 14) (= I1-i 15)))
(assert (ite B3-F (or (= I3-i 1) (= I3-i 2) (= I3-i 3) (= I3-i 4) (= I3-i 5) (= I3-i 6) (= I3-i 7) (= I3-i 8) (= I3-i 9) (= I3-i 10) (= I3-i 11) (= I3-i 12) (= I3-i 13) (= I3-i 14) (= I3-i 15)) (= I3-i 0)))
(set-info :base-constraint-type |constraints from validation-rules|)
(assert (not (and B41-F B40-F (distinct I40 0) (distinct I41 (div (* I40 15) 100)))))
(assert (not (and B38-F (or (< I38-y 2025) (> I38-y 2025)))))
(assert (not (and (or B58-F B57-F) (not (and B58-F B57-F)))))
(assert (not (distinct I36 (+ I10 I11 I22 I24 I33 I35 (- 822889167869)))))
(assert (not (distinct I37 (+ I12 I13 I17 I18 I23 I25 I29 I31 I34 (- 701106)))))
(assert (not (and B5-F (or (< I5-y 2025) (> I5-y 2025)))))
(assert (not (or (> I9-y I8-y) (and (= I9-y I8-y) (> I9-m 6)) (and (= I9-y I8-y) (= I9-m 6) (> I9-d I8-d)))))
(assert (not (distinct I8-y (ite B5-F I5-y 0))))
(assert (not (>= (ite (and (>= I7-N 1) (<= I7-N 9999)) (+ (- I9-y I7-N) (ite (or (< I7-N I9-y) (and (= I7-N I9-y) (< 5 I9-m)) (and (= I7-N I9-y) (= 5 I9-m) (< 1 I9-d)) (and (= I7-N I9-y) (= 5 I9-m) (= 1 I9-d))) (ite (or (< 5 I9-m) (and (= 5 I9-m) (<= 1 I9-d))) 0 (- 1)) (ite (or (> 5 I9-m) (and (= 5 I9-m) (>= 1 I9-d))) 0 1))) 0) 1)))
(assert (not (< I8-y I7-N)))
(assert (not (> I7-N 2025)))
(assert (not (= I11 0)))
(assert (not (> (ite (>= (- (- 701109) (div (* I10 55) 10)) 0) (- (- 701109) (div (* I10 55) 10)) (- (- (- 701109) (div (* I10 55) 10)))) 100)))
(assert (not (or (> (* I10 100) 100) (> (* I11 100) 15000000000085))))
(assert (not (> (ite (>= (- I12 (div (* I11 55) 10)) 0) (- I12 (div (* I11 55) 10)) (- (- I12 (div (* I11 55) 10)))) 100)))
(assert (not (> (ite (>= (- I13 (- 54693319984)) 0) (- I13 (- 54693319984)) (- (- I13 (- 54693319984)))) 100)))
(assert (not (or (< 2026 I27-y) (and (= 2026 I27-y) (< 6 I27-m)) (and (= 2026 I27-y) (= 6 I27-m) (< 18 I27-d)) (and (= 2026 I27-y) (= 6 I27-m) (= 18 I27-d)))))
(assert (not (< 2026 I26-N)))
(assert (not (< 2026 (ite B5-F I5-y 0))))
(assert (not (distinct I27-y I26-N)))
(assert (not (or (> I27-y (ite B5-F I5-y 0)) (and (= I27-y (ite B5-F I5-y 0)) (> I27-m 6)))))
(assert (not (> I26-N 2025)))
(assert (not (or (and (or (< I27-y 2022) (and (= I27-y 2022) (< I27-m 10)) (and (= I27-y 2022) (= I27-m 10) (< I27-d 1))) (< I26-N 2025)) (and (or (> I27-y 2022) (and (= I27-y 2022) (> I27-m 10)) (and (= I27-y 2022) (= I27-m 10) (> I27-d 1)) (and (= I27-y 2022) (= I27-m 10) (= I27-d 1))) (or (and (< I26-N 2025) (= I26-N 2024)) (and (< I26-N 2025) (distinct I26-N 2024)))))))
(assert (not (or (and (= I27-y (ite B5-F I5-y 0)) (< I27-m 2)) (and (distinct I27-y (ite B5-F I5-y 0)) (< I27-y (- (ite B5-F I5-y 0) 1))) (and (distinct I27-y (ite B5-F I5-y 0)) (= I27-y (- (ite B5-F I5-y 0) 1)) (> I27-m 8) (< I27-m 14)) (and (distinct I27-y (ite B5-F I5-y 0)) (= I27-y (- (ite B5-F I5-y 0) 1)) (<= I27-m 8)))))
(assert (not (and (distinct I32 0) (= I33 0))))
(assert (not (> (ite (>= (- I29 489761482837) 0) (- I29 489761482837) (- (- I29 489761482837))) 100)))
(assert (not (or (> 9386366900 (+ (* I30 15) 100)) (> (* I33 100) (+ (* I32 15) 100)))))
(assert (not (> (ite (>= (- I31 516250179) 0) (- I31 516250179) (- (- I31 516250179))) 100)))
(assert (not (> (ite (>= (- I34 (div (* I33 55) 10)) 0) (- I34 (div (* I33 55) 10)) (- (- I34 (div (* I33 55) 10)))) 100)))
(assert (not (= I35 0)))
(assert (not (> (* I35 100) 15000000000085)))
(assert (not (or (> I28-y (ite B5-F I5-y 0)) (and (> I28-m 6) (= I28-y (ite B5-F I5-y 0))))))
(assert (not (or (> I16-y I15-y) (and (= I16-y I15-y) (> I16-m 6)) (and (= I16-y I15-y) (= I16-m 6) (> I16-d I15-d)))))
(assert (not (distinct I15-y (ite B5-F I5-y 0))))
(assert (not (< I15-y 2025)))
(assert (not (> (ite (>= (- I17 538525163682) 0) (- I17 538525163682) (- (- I17 538525163682))) 100)))
(assert (not (> (ite (>= (- I18 (- 5499999999995)) 0) (- I18 (- 5499999999995)) (- (- I18 (- 5499999999995)))) 100)))
(assert (not (or (> I14-e-y I15-y) (and (= I14-e-y I15-y) (> I14-e-m 6)) (and (= I14-e-y I15-y) (= I14-e-m 6) (> I14-e-d I15-d)))))
(assert (not (or (< I14-s-y (- I14-e-y 1)) (and (= I14-s-y (- I14-e-y 1)) (< I14-s-m I14-e-m)) (and (= I14-s-y (- I14-e-y 1)) (= I14-s-m I14-e-m) (< I14-s-d (+ I14-e-d 1))))))
(assert (not (or (> I21-y I20-y) (and (= I21-y I20-y) (> I21-m 6)) (and (= I21-y I20-y) (= I21-m 6) (> I21-d I20-d)))))
(assert (not (distinct I20-y (ite B5-F I5-y 0))))
(assert (not (< I20-y 2025)))
(assert (not (or (= I22 0) (= I24 0))))
(assert (not (> (ite (>= (- I23 (div (* I22 55) 10)) 0) (- I23 (div (* I22 55) 10)) (- (- I23 (div (* I22 55) 10)))) 100)))
(assert (not (or (> (* I22 100) 15000000000085) (> (* I24 100) 15000000000085))))
(assert (not (> (ite (>= (- I25 (div (* I24 55) 10)) 0) (- I25 (div (* I24 55) 10)) (- (- I25 (div (* I24 55) 10)))) 100)))
(assert (not (or (> I19-e-y I20-y) (and (= I19-e-y I20-y) (> I19-e-m 6)) (and (= I19-e-y I20-y) (= I19-e-m 6) (> I19-e-d I20-d)))))
(assert (not (or (< I19-s-y (- I19-e-y 1)) (and (= I19-s-y (- I19-e-y 1)) (< I19-s-m I19-e-m)) (and (= I19-s-y (- I19-e-y 1)) (= I19-s-m I19-e-m) (< I19-s-d (+ I19-e-d 1))))))
(assert (not B38-F))
(assert B5-F)
(assert (not (and B5-F (or (< 2026 I5-y) (= 2026 I5-y)))))
(assert (not (and B5-F (or (< 2027 I5-y) (= 2027 I5-y)))))
(assert (not (and B3-F (= I2-N 0))))
(assert (not (and B3-F (= I3-i I1-i))))
(assert (not (distinct I55 (+ I45 I44 I49 I50 I54 I52 50000042039421))))
(assert (not (distinct I55 (* I36 100))))
(set-info :major-phase |control constraints|)
(push 1)
(assert B46-F)
(set-info :status sat)
(check-sat)
(push 1)
(assert B5-F)
(set-info :status sat)
(check-sat)
(push 1)
(assert B47-F)
(set-info :status sat)
(check-sat)
(push 1)
(assert B38-F)
(set-info :status unsat)
(check-sat)
(pop 1)
(push 1)
(assert B58-F)
(set-info :status sat)
(check-sat)
(push 1)
(assert B4-F)
(set-info :status sat)
(check-sat)
(push 1)
(assert B41-F)
(set-info :status unsat)
(check-sat)
(pop 1)
(push 1)
(assert B42-F)
(set-info :status sat)
(check-sat)
(push 1)
(assert B43-F)
(set-info :status sat)
(check-sat)
(push 1)
(assert B40-F)
(set-info :status unsat)
(check-sat)
(pop 1)
(push 1)
(assert B53-F)
(set-info :status sat)
(check-sat)
(push 1)
(assert B51-F)
(set-info :status sat)
(check-sat)
(push 1)
(assert B54-F)
(set-info :status sat)
(check-sat)
(push 1)
(assert B50-F)
(set-info :status sat)
(check-sat)
(push 1)
(assert B45-F)
(set-info :status sat)
(check-sat)
(push 1)
(assert B44-F)
(set-info :status sat)
(check-sat)
(push 1)
(assert B52-F)
(set-info :status sat)
(check-sat)
(push 1)
(assert B49-F)
(set-info :status sat)
(check-sat)
(push 1)
(assert B3-F)
(set-info :status sat)
(check-sat)
(push 1)
(assert B6-F)
(set-info :status sat)
(check-sat)
(push 1)
(assert B57-F)
(set-info :status sat)
(check-sat)
(push 1)
(assert B48-F)
(set-info :status sat)
(check-sat)
(exit)

